2 ANNO/Ricerca operativa/Esercizi_AMPL/14/eserciziodapdf.dat
/*
min z = 7x1 + 10x2
2x1 - 4x2 + x3 <= 10
x1 + 2x2 - x3 >= 5
x1 - 3x2 + 3x3 >= 4
xj >= 0
*/

set I1:= r1;
set I2:= r2 r3;
set J:= x1 x2 x3;

param b1:=
r1 10;

param b2:=
r2 5
r3 4;

param c:=
x1 7
x2 10
x3 0;

param a1:
	x1	x2	x3=
r1	2	-4	1;

param a2:
	x1	x2	x3=
r2	1	2	-1
r3	1	-3	3;